Route #1: 1 2 5 29 23 31 45 30 50 37 51 44 24 20 16 33 17 8 26 40 1
Route #2: 1 32 21 7 36 39 19 52 1
Route #3: 1 4 6 15 22 35 42 10 1
Route #4: 1 34 14 53 12 25 1
Route #5: 1 48 18 49 43 41 1
Route #6: 1 13 46 3 38 11 27 1
Route #7: 1 47 9 28 1
cost 1183
